language ESSENCE' 1.0
$ minion Nodes: 1
$ minion TotalTime: 0.000422
$ Savile Row TotalTime: 0.162
letting pain_tuple3_tuple1_tuple2 be [11, 11;int(1,2)]
letting pain_tuple1 be [2, 2;int(1,2)]
letting pain_tuple3_tuple1_tuple1 be [10, 10;int(1,2)]
letting pain_tuple3_tuple2 be [12, 12;int(1,2)]
letting pain_tuple2_tuple1 be [5, 5;int(1,2)]
letting pain_tuple2_tuple2 be [6, 6;int(1,2)]
